db/data/287634407224813116215636283234885715.z3.out
-------------------
2500.156643758
